c User generated cnf file
p cnf 12 70
4 6 -11 0 
-11 2 3 0 
6 -11 4 0 
12 1 -5 0 
7 -6 2 0 
4 4 -12 0 
11 5 -1 0 
-5 10 3 0 
12 11 -2 0 
-4 11 12 0 
10 1 -7 0 
-9 9 6 0 
7 6 -9 0 
4 -6 9 0 
-4 3 1 0 
-6 12 10 0 
-2 5 4 0 
-9 1 9 0 
9 -11 9 0 
5 10 -5 0 
4 8 -9 0 
-7 3 12 0 
10 -4 8 0 
12 -8 6 0 
11 -9 7 0 
7 12 -8 0 
3 -4 1 0 
1 -1 10 0 
1 11 -2 0 
6 -5 5 0 
-11 5 10 0 
9 8 -6 0 
-10 2 10 0 
1 6 -6 0 
4 -9 8 0 
-7 9 6 0 
1 -8 6 0 
3 10 -9 0 
-11 2 3 0 
-12 11 10 0 
3 10 -7 0 
-12 8 10 0 
-8 10 11 0 
10 -10 9 0 
5 10 -5 0 
-9 10 11 0 
-9 4 9 0 
1 -12 2 0 
5 9 -2 0 
10 -9 8 0 
2 8 -12 0 
12 -5 10 0 
8 12 -6 0 
12 -9 1 0 
-10 3 9 0 
12 -12 3 0 
11 -11 2 0 
-8 1 4 0 
1 -5 9 0 
2 -1 8 0 
6 -12 4 0 
-2 6 1 0 
-5 11 8 0 
1 -9 4 0 
1 -1 1 0 
12 -2 8 0 
3 3 -4 0 
1 1 -3 0 
-2 12 12 0 
3 5 -9 0 
